NPROCS=0
This instance is clustered!
Gurobi Optimizer version 9.0.0 build v9.0.0rc2 (linux64)
Optimize a model with 16 rows, 65 columns and 128 nonzeros
Model fingerprint: 0xc6c6ddc8
Variable types: 1 continuous, 64 integer (64 binary)
Coefficient statistics:
  Matrix range     [1e+00, 1e+00]
  Objective range  [1e+00, 3e+01]
  Bounds range     [1e+00, 1e+00]
  RHS range        [1e+00, 1e+00]
Presolve removed 2 rows and 21 columns
Presolve time: 0.00s
Presolved: 14 rows, 44 columns, 86 nonzeros
Variable types: 1 continuous, 43 integer (43 binary)

Root relaxation: objective 5.452871e+01, 12 iterations, 0.00 seconds

    Nodes    |    Current Node    |     Objective Bounds      |     Work
 Expl Unexpl |  Obj  Depth IntInf | Incumbent    BestBd   Gap | It/Node Time

     0     0   56.69886    0   13          -   56.69886      -     -    0s
H    0     0                     102.7214382   56.69886  44.8%     -    0s
H    0     0                      84.3496609   56.69886  32.8%     -    0s
     0     0   57.75339    0   13   84.34966   57.75339  31.5%     -    0s
     0     0   57.78531    0   15   84.34966   57.78531  31.5%     -    0s
     0     2   57.78531    0   15   84.34966   57.78531  31.5%     -    0s
H   90    26                      74.3531396   69.88285  6.01%   3.1    0s

Cutting planes:
  Gomory: 1
  Inf proof: 2
  Lazy constraints: 36

Explored 109 nodes (331 simplex iterations) in 0.04 seconds
Thread count was 12 (of 12 available processors)

Solution count 3: 74.3531 84.3497 102.721 

Optimal solution found (tolerance 1.00e-04)
Best objective 7.435313956779e+01, best bound 7.435313956779e+01, gap 0.0000%

User-callback calls 332, time in user-callback 0.00 sec
/projects/academic/josewalt/caigao/RRARP_BD/BendersDecomp/ret/model_outs/n_6_m_4_algo_3.out
 =====>>>>> Solution is written to file in <../ret/model_outs> !!!
===>> All Done!
